\ SCIP STATISTICS
\   Problem name     : STOCFOR1
\   Variables        : 111 (0 binary, 0 integer, 0 implicit integer, 111 continuous)
\   Constraints      : 117
\   Obj. scale       : 1
\   Obj. offset      : 0
Minimize 
Obj: -1000 BALAN101 -905 BALAN202 +50000 PNLTY202 -819 BALAN303 +452500 PNLTY303 -741372 BALAN404 
+40960000 PNLTY404 -670989 BALAN505 +37070000 PNLTY505 -607287 BALAN606 +33549999 PNLTY606 +198203000 CLASS307 
+222975000 CLASS407 +252173000 CLASS507 +281025000 CLASS607 +292467000 CLASS707 +296446000 CLASS807 -159355000 STATE107 
-177186000 STATE207 -198203000 STATE307 -222975000 STATE407 -252173000 STATE507 -281025000 STATE607 -292467000 STATE707 
-296446000 STATE807 -549633 BALAN707 +30360000 PNLTY707 
Subject to 
BOUND301: +1000000 CLASS301 -1000000 STATE301 <= +0 
BOUND401: +1000000 CLASS401 -1000000 STATE401 <= +0 
BOUND501: +1000000 CLASS501 -1000000 STATE501 <= +0 
BOUND601: +1000000 CLASS601 -1000000 STATE601 <= +0 
BOUND701: +1000000 CLASS701 -1000000 STATE701 <= +0 
BOUND801: +1000000 CLASS801 -1000000 STATE801 <= +0 
REGEN101: +1000000 STATE101 = +241000 
REGEN201: +1000000 STATE201 = +125000 
REGEN301: +1000000 STATE301 = +1404000 
REGEN401: +1000000 STATE401 = +2004000 
REGEN501: +1000000 STATE501 = +9768000 
REGEN601: +1000000 STATE601 = +16385000 
REGEN701: +1000000 STATE701 = +2815000 
REGEN801: +1000000 STATE801 = +61995000 
YIELD101: +16000000 CLASS301 +107000000 CLASS401 +217000000 CLASS501 +275000000 CLASS601 +298000000 CLASS701 +306000000 CLASS801 -1000000 BALAN101 
= +0 
BOUND302: +1000000 CLASS302 -1000000 STATE302 <= +0 
BOUND402: +1000000 CLASS402 -1000000 STATE402 <= +0 
BOUND502: +1000000 CLASS502 -1000000 STATE502 <= +0 
BOUND602: +1000000 CLASS602 -1000000 STATE602 <= +0 
BOUND702: +1000000 CLASS702 -1000000 STATE702 <= +0 
BOUND802: +1000000 CLASS802 -1000000 STATE802 <= +0 
REGEN102: -937420 CLASS301 -937420 CLASS401 -937420 CLASS501 -937420 CLASS601 -937420 CLASS701 -937420 CLASS801 
-62580 STATE101 -62580 STATE201 -62580 STATE301 -62580 STATE401 -62580 STATE501 -62580 STATE601 
-62580 STATE701 -62580 STATE801 +1000000 STATE102 = +0 
REGEN202: -937420 STATE101 +1000000 STATE202 = +0 
REGEN302: -937420 STATE201 +1000000 STATE302 = +0 
REGEN402: +937420 CLASS301 -937420 STATE301 +1000000 STATE402 = +0 
REGEN502: +937420 CLASS401 -937420 STATE401 +1000000 STATE502 = +0 
REGEN602: +937420 CLASS501 -937420 STATE501 +1000000 STATE602 = +0 
REGEN702: +937420 CLASS601 -937420 STATE601 +1000000 STATE702 = +0 
REGEN802: +937420 CLASS701 +937420 CLASS801 -937420 STATE701 -937420 STATE801 +1000000 STATE802 = +0 
TFLOW102: +14400000 CLASS301 +96300000 CLASS401 +195300000 CLASS501 +247500000 CLASS601 +268200000 CLASS701 +275400000 CLASS801 
-1000000 BALAN202 -1000000 PNLTY202 <= +0 
TFLOW202: +17600000 CLASS301 +117700000 CLASS401 +238700000 CLASS501 +302500000 CLASS601 +327800000 CLASS701 +336600000 CLASS801 
-1000000 BALAN202 >= +0 
YIELD202: +16000000 CLASS302 +107000000 CLASS402 +217000000 CLASS502 +275000000 CLASS602 +298000000 CLASS702 +306000000 CLASS802 -1000000 BALAN202 
= +0 
BOUND303: +1000000 CLASS303 -1000000 STATE303 <= +0 
BOUND403: +1000000 CLASS403 -1000000 STATE403 <= +0 
BOUND503: +1000000 CLASS503 -1000000 STATE503 <= +0 
BOUND603: +1000000 CLASS603 -1000000 STATE603 <= +0 
BOUND703: +1000000 CLASS703 -1000000 STATE703 <= +0 
BOUND803: +1000000 CLASS803 -1000000 STATE803 <= +0 
REGEN103: -937420 CLASS302 -937420 CLASS402 -937420 CLASS502 -937420 CLASS602 -937420 CLASS702 -937420 CLASS802 
-62580 STATE102 -62580 STATE202 -62580 STATE302 -62580 STATE402 -62580 STATE502 -62580 STATE602 
-62580 STATE702 -62580 STATE802 +1000000 STATE103 = +0 
REGEN203: -937420 STATE102 +1000000 STATE203 = +0 
REGEN303: -937420 STATE202 +1000000 STATE303 = +0 
REGEN403: +937420 CLASS302 -937420 STATE302 +1000000 STATE403 = +0 
REGEN503: +937420 CLASS402 -937420 STATE402 +1000000 STATE503 = +0 
REGEN603: +937420 CLASS502 -937420 STATE502 +1000000 STATE603 = +0 
REGEN703: +937420 CLASS602 -937420 STATE602 +1000000 STATE703 = +0 
REGEN803: +937420 CLASS702 +937420 CLASS802 -937420 STATE702 -937420 STATE802 +1000000 STATE803 = +0 
TFLOW103: +14400000 CLASS302 +96300000 CLASS402 +195300000 CLASS502 +247500000 CLASS602 +268200000 CLASS702 +275400000 CLASS802 
-1000000 BALAN303 -1000000 PNLTY303 <= +0 
TFLOW203: +17600000 CLASS302 +117700000 CLASS402 +238700000 CLASS502 +302500000 CLASS602 +327800000 CLASS702 +336600000 CLASS802 
-1000000 BALAN303 >= +0 
YIELD303: +16000000 CLASS303 +107000000 CLASS403 +217000000 CLASS503 +275000000 CLASS603 +298000000 CLASS703 +306000000 CLASS803 -1000000 BALAN303 
= +0 
BOUND304: +1000000 CLASS304 -1000000 STATE304 <= +0 
BOUND404: +1000000 CLASS404 -1000000 STATE404 <= +0 
BOUND504: +1000000 CLASS504 -1000000 STATE504 <= +0 
BOUND604: +1000000 CLASS604 -1000000 STATE604 <= +0 
BOUND704: +1000000 CLASS704 -1000000 STATE704 <= +0 
BOUND804: +1000000 CLASS804 -1000000 STATE804 <= +0 
REGEN104: -937420 CLASS303 -937420 CLASS403 -937420 CLASS503 -937420 CLASS603 -937420 CLASS703 -937420 CLASS803 
-62580 STATE103 -62580 STATE203 -62580 STATE303 -62580 STATE403 -62580 STATE503 -62580 STATE603 
-62580 STATE703 -62580 STATE803 +1000000 STATE104 = +0 
REGEN204: -937420 STATE103 +1000000 STATE204 = +0 
REGEN304: -937420 STATE203 +1000000 STATE304 = +0 
REGEN404: +937420 CLASS303 -937420 STATE303 +1000000 STATE404 = +0 
REGEN504: +937420 CLASS403 -937420 STATE403 +1000000 STATE504 = +0 
REGEN604: +937420 CLASS503 -937420 STATE503 +1000000 STATE604 = +0 
REGEN704: +937420 CLASS603 -937420 STATE603 +1000000 STATE704 = +0 
REGEN804: +937420 CLASS703 +937420 CLASS803 -937420 STATE703 -937420 STATE803 +1000000 STATE804 = +0 
TFLOW104: +14400000 CLASS303 +96300000 CLASS403 +195300000 CLASS503 +247500000 CLASS603 +268200000 CLASS703 +275400000 CLASS803 
-1000000 BALAN404 -1000000 PNLTY404 <= +0 
TFLOW204: +17600000 CLASS303 +117700000 CLASS403 +238700000 CLASS503 +302500000 CLASS603 +327800000 CLASS703 +336600000 CLASS803 
-1000000 BALAN404 >= +0 
YIELD404: +16000000 CLASS304 +107000000 CLASS404 +217000000 CLASS504 +275000000 CLASS604 +298000000 CLASS704 +306000000 CLASS804 -1000000 BALAN404 
= +0 
BOUND305: +1000000 CLASS305 -1000000 STATE305 <= +0 
BOUND405: +1000000 CLASS405 -1000000 STATE405 <= +0 
BOUND505: +1000000 CLASS505 -1000000 STATE505 <= +0 
BOUND605: +1000000 CLASS605 -1000000 STATE605 <= +0 
BOUND705: +1000000 CLASS705 -1000000 STATE705 <= +0 
BOUND805: +1000000 CLASS805 -1000000 STATE805 <= +0 
REGEN105: -937420 CLASS304 -937420 CLASS404 -937420 CLASS504 -937420 CLASS604 -937420 CLASS704 -937420 CLASS804 
-62580 STATE104 -62580 STATE204 -62580 STATE304 -62580 STATE404 -62580 STATE504 -62580 STATE604 
-62580 STATE704 -62580 STATE804 +1000000 STATE105 = +0 
REGEN205: -937420 STATE104 +1000000 STATE205 = +0 
REGEN305: -937420 STATE204 +1000000 STATE305 = +0 
REGEN405: +937420 CLASS304 -937420 STATE304 +1000000 STATE405 = +0 
REGEN505: +937420 CLASS404 -937420 STATE404 +1000000 STATE505 = +0 
REGEN605: +937420 CLASS504 -937420 STATE504 +1000000 STATE605 = +0 
REGEN705: +937420 CLASS604 -937420 STATE604 +1000000 STATE705 = +0 
REGEN805: +937420 CLASS704 +937420 CLASS804 -937420 STATE704 -937420 STATE804 +1000000 STATE805 = +0 
TFLOW105: +14400000 CLASS304 +96300000 CLASS404 +195300000 CLASS504 +247500000 CLASS604 +268200000 CLASS704 +275400000 CLASS804 
-1000000 BALAN505 -1000000 PNLTY505 <= +0 
TFLOW205: +17600000 CLASS304 +117700000 CLASS404 +238700000 CLASS504 +302500000 CLASS604 +327800000 CLASS704 +336600000 CLASS804 
-1000000 BALAN505 >= +0 
YIELD505: +16000000 CLASS305 +107000000 CLASS405 +217000000 CLASS505 +275000000 CLASS605 +298000000 CLASS705 +306000000 CLASS805 -1000000 BALAN505 
= +0 
BOUND306: +1000000 CLASS306 -1000000 STATE306 <= +0 
BOUND406: +1000000 CLASS406 -1000000 STATE406 <= +0 
BOUND506: +1000000 CLASS506 -1000000 STATE506 <= +0 
BOUND606: +1000000 CLASS606 -1000000 STATE606 <= +0 
BOUND706: +1000000 CLASS706 -1000000 STATE706 <= +0 
BOUND806: +1000000 CLASS806 -1000000 STATE806 <= +0 
REGEN106: -937420 CLASS305 -937420 CLASS405 -937420 CLASS505 -937420 CLASS605 -937420 CLASS705 -937420 CLASS805 
-62580 STATE105 -62580 STATE205 -62580 STATE305 -62580 STATE405 -62580 STATE505 -62580 STATE605 
-62580 STATE705 -62580 STATE805 +1000000 STATE106 = +0 
REGEN206: -937420 STATE105 +1000000 STATE206 = +0 
REGEN306: -937420 STATE205 +1000000 STATE306 = +0 
REGEN406: +937420 CLASS305 -937420 STATE305 +1000000 STATE406 = +0 
REGEN506: +937420 CLASS405 -937420 STATE405 +1000000 STATE506 = +0 
REGEN606: +937420 CLASS505 -937420 STATE505 +1000000 STATE606 = +0 
REGEN706: +937420 CLASS605 -937420 STATE605 +1000000 STATE706 = +0 
REGEN806: +937420 CLASS705 +937420 CLASS805 -937420 STATE705 -937420 STATE805 +1000000 STATE806 = +0 
TFLOW106: +14400000 CLASS305 +96300000 CLASS405 +195300000 CLASS505 +247500000 CLASS605 +268200000 CLASS705 +275400000 CLASS805 
-1000000 BALAN606 -1000000 PNLTY606 <= +0 
TFLOW206: +17600000 CLASS305 +117700000 CLASS405 +238700000 CLASS505 +302500000 CLASS605 +327800000 CLASS705 +336600000 CLASS805 
-1000000 BALAN606 >= +0 
YIELD606: +16000000 CLASS306 +107000000 CLASS406 +217000000 CLASS506 +275000000 CLASS606 +298000000 CLASS706 +306000000 CLASS806 -1000000 BALAN606 
= +0 
BOUND307: +1000000 CLASS307 -1000000 STATE307 <= +0 
BOUND407: +1000000 CLASS407 -1000000 STATE407 <= +0 
BOUND507: +1000000 CLASS507 -1000000 STATE507 <= +0 
BOUND607: +1000000 CLASS607 -1000000 STATE607 <= +0 
BOUND707: +1000000 CLASS707 -1000000 STATE707 <= +0 
BOUND807: +1000000 CLASS807 -1000000 STATE807 <= +0 
REGEN107: -937420 CLASS306 -937420 CLASS406 -937420 CLASS506 -937420 CLASS606 -937420 CLASS706 -937420 CLASS806 
-62580 STATE106 -62580 STATE206 -62580 STATE306 -62580 STATE406 -62580 STATE506 -62580 STATE606 
-62580 STATE706 -62580 STATE806 +1000000 STATE107 = +0 
REGEN207: -937420 STATE106 +1000000 STATE207 = +0 
REGEN307: -937420 STATE206 +1000000 STATE307 = +0 
REGEN407: +937420 CLASS306 -937420 STATE306 +1000000 STATE407 = +0 
REGEN507: +937420 CLASS406 -937420 STATE406 +1000000 STATE507 = +0 
REGEN607: +937420 CLASS506 -937420 STATE506 +1000000 STATE607 = +0 
REGEN707: +937420 CLASS606 -937420 STATE606 +1000000 STATE707 = +0 
REGEN807: +937420 CLASS706 +937420 CLASS806 -937420 STATE706 -937420 STATE806 +1000000 STATE807 = +0 
TFLOW107: +14400000 CLASS306 +96300000 CLASS406 +195300000 CLASS506 +247500000 CLASS606 +268200000 CLASS706 +275400000 CLASS806 
-1000000 BALAN707 -1000000 PNLTY707 <= +0 
TFLOW207: +17600000 CLASS306 +117700000 CLASS406 +238700000 CLASS506 +302500000 CLASS606 +327800000 CLASS706 +336600000 CLASS806 
-1000000 BALAN707 >= +0 
YIELD707: +16000000 CLASS307 +107000000 CLASS407 +217000000 CLASS507 +275000000 CLASS607 +298000000 CLASS707 +306000000 CLASS807 -1000000 BALAN707 
= +0 
Bounds 
End 

